JulietBench/Juliet_Based_Patch_Bench/qemu/CWE-190-Integer-Overflow-or-Wraparound/CVE_2014_0143_cab60de930684c33f67d4e32c7509b567f8c445b/solvercveSnippet.smt2
; benchmark generated from python API
(set-info :status unknown)
(declare-fun R () (_ BitVec 32))
(declare-fun rdi () (_ BitVec 64))
(assert
 (let (($x72 (= (_ bv0 32) R)))
 (let (($x42 (bvule rdi (_ bv268435455 64))))
 (let (($x76 (and $x42 $x72)))
 (let (($x69 (= (_ bv27 32) R)))
 (let (($x57 (bvugt rdi (_ bv268435455 64))))
 (let (($x75 (and $x57 $x69)))
 (let (($x77 (or $x75 $x76)))
 (let (($x80 (not $x77)))
 (let (($x15 (bvsgt (_ bv2147483648 64) rdi)))
 (let (($x73 (and $x15 $x72)))
 (let (($x26 (bvsle (_ bv2147483648 64) rdi)))
 (let (($x70 (and $x26 $x69)))
 (let (($x74 (or $x70 $x73)))
 (let (($x79 (not $x74)))
 (let (($x81 (and $x79 $x80)))
 (let (($x78 (and $x74 $x77)))
 (let (($x82 (or $x78 $x81)))
 (not $x82)))))))))))))))))))
(check-sat)
